language Essence 1.3

letting course_load be
        function(1 --> 18, 2 --> 20, 3 --> 19, 4 --> 20, 5 --> 19, 6 --> 19, 7 --> 16, 8 --> 18, 9 --> 20, 10 --> 18,
                 11 --> 15, 12 --> 16, 13 --> 16, 14 --> 16, 15 --> 19, 16 --> 15, 17 --> 19, 18 --> 15, 19 --> 17)
letting courses_per_period_lb be 1
letting courses_per_period_ub be 11
letting level be
        function(1 --> 3, 2 --> 2, 3 --> 2, 4 --> 1, 5 --> 1, 6 --> 1, 7 --> 2, 8 --> 1, 9 --> 1, 10 --> 2, 11 --> 1,
                 12 --> 1, 13 --> 1, 14 --> 3, 15 --> 3, 16 --> 1, 17 --> 2, 18 --> 2, 19 --> 3)
letting load_per_period_lb be 16
letting load_per_period_ub be 44
letting n_courses be 19
letting n_periods be 8
letting prerequisite be
        relation((4, 19), (5, 15), (5, 17), (6, 14), (6, 15), (7, 15), (8, 19), (9, 19), (10, 15), (11, 15), (11, 17),
                 (12, 15), (12, 18), (13, 14), (13, 17), (13, 19), (16, 15), (17, 19), (18, 15))
$ Visualisation for prerequisite
$  4 19
$  5 15
$  5 17
$  6 14
$  6 15
$  7 15
$  8 19
$  9 19
$ 10 15
$ 11 15
$ 11 17
$ 12 15
$ 12 18
$ 13 14
$ 13 17
$ 13 19
$ 16 15
$ 17 19
$ 18 15

